c this is nonogram instance
p cnf 188 1195
1 0
2 3 4 5 0
6 0
7 8 9 10 11 0
12 13 14 15 16 0
17 18 19 20 21 0
22 0
23 0
24 25 26 27 0
28 29 30 31 0
32 33 34 35 0
36 0
37 38 39 40 0
41 0
42 43 44 45 0
46 47 48 49 0
50 51 52 53 0
54 0
55 0
56 57 58 59 60 61 0
62 63 64 65 66 67 0
68 69 70 71 72 73 0
74 75 76 77 78 79 0
80 81 82 83 0
84 0
85 0
86 87 0
88 89 0
90 91 0
92 93 0
94 0
95 0
96 97 0
98 99 0
100 0
101 102 0
103 104 0
105 0
106 0
107 108 109 110 111 112 0
113 114 115 116 117 118 0
119 120 121 122 123 124 0
125 126 127 128 129 130 0
131 0
132 0
133 134 135 136 137 0
138 139 140 141 142 0
143 144 145 146 147 0
148 0
149 150 0
151 152 0
153 154 0
155 156 0
157 158 0
159 160 0
161 162 0
163 164 0
165 166 0
167 168 0
169 170 0
171 172 0
173 174 0
175 176 0
177 178 0
179 180 0
181 182 0
183 184 0
185 186 0
187 188 0
-2 -3 0
-2 -4 0
-2 -5 0
-3 -4 0
-3 -5 0
-4 -5 0
-7 -8 0
-7 -9 0
-7 -10 0
-7 -11 0
-8 -9 0
-8 -10 0
-8 -11 0
-9 -10 0
-9 -11 0
-10 -11 0
-12 -13 0
-12 -14 0
-12 -15 0
-12 -16 0
-13 -14 0
-13 -15 0
-13 -16 0
-14 -15 0
-14 -16 0
-15 -16 0
-17 -18 0
-17 -19 0
-17 -20 0
-17 -21 0
-18 -19 0
-18 -20 0
-18 -21 0
-19 -20 0
-19 -21 0
-20 -21 0
-24 -25 0
-24 -26 0
-24 -27 0
-25 -26 0
-25 -27 0
-26 -27 0
-28 -29 0
-28 -30 0
-28 -31 0
-29 -30 0
-29 -31 0
-30 -31 0
-32 -33 0
-32 -34 0
-32 -35 0
-33 -34 0
-33 -35 0
-34 -35 0
-37 -38 0
-37 -39 0
-37 -40 0
-38 -39 0
-38 -40 0
-39 -40 0
-42 -43 0
-42 -44 0
-42 -45 0
-43 -44 0
-43 -45 0
-44 -45 0
-46 -47 0
-46 -48 0
-46 -49 0
-47 -48 0
-47 -49 0
-48 -49 0
-50 -51 0
-50 -52 0
-50 -53 0
-51 -52 0
-51 -53 0
-52 -53 0
-56 -57 0
-56 -58 0
-56 -59 0
-56 -60 0
-56 -61 0
-57 -58 0
-57 -59 0
-57 -60 0
-57 -61 0
-58 -59 0
-58 -60 0
-58 -61 0
-59 -60 0
-59 -61 0
-60 -61 0
-62 -63 0
-62 -64 0
-62 -65 0
-62 -66 0
-62 -67 0
-63 -64 0
-63 -65 0
-63 -66 0
-63 -67 0
-64 -65 0
-64 -66 0
-64 -67 0
-65 -66 0
-65 -67 0
-66 -67 0
-68 -69 0
-68 -70 0
-68 -71 0
-68 -72 0
-68 -73 0
-69 -70 0
-69 -71 0
-69 -72 0
-69 -73 0
-70 -71 0
-70 -72 0
-70 -73 0
-71 -72 0
-71 -73 0
-72 -73 0
-74 -75 0
-74 -76 0
-74 -77 0
-74 -78 0
-74 -79 0
-75 -76 0
-75 -77 0
-75 -78 0
-75 -79 0
-76 -77 0
-76 -78 0
-76 -79 0
-77 -78 0
-77 -79 0
-78 -79 0
-80 -81 0
-80 -82 0
-80 -83 0
-81 -82 0
-81 -83 0
-82 -83 0
-86 -87 0
-88 -89 0
-90 -91 0
-92 -93 0
-96 -97 0
-98 -99 0
-101 -102 0
-103 -104 0
-107 -108 0
-107 -109 0
-107 -110 0
-107 -111 0
-107 -112 0
-108 -109 0
-108 -110 0
-108 -111 0
-108 -112 0
-109 -110 0
-109 -111 0
-109 -112 0
-110 -111 0
-110 -112 0
-111 -112 0
-113 -114 0
-113 -115 0
-113 -116 0
-113 -117 0
-113 -118 0
-114 -115 0
-114 -116 0
-114 -117 0
-114 -118 0
-115 -116 0
-115 -117 0
-115 -118 0
-116 -117 0
-116 -118 0
-117 -118 0
-119 -120 0
-119 -121 0
-119 -122 0
-119 -123 0
-119 -124 0
-120 -121 0
-120 -122 0
-120 -123 0
-120 -124 0
-121 -122 0
-121 -123 0
-121 -124 0
-122 -123 0
-122 -124 0
-123 -124 0
-125 -126 0
-125 -127 0
-125 -128 0
-125 -129 0
-125 -130 0
-126 -127 0
-126 -128 0
-126 -129 0
-126 -130 0
-127 -128 0
-127 -129 0
-127 -130 0
-128 -129 0
-128 -130 0
-129 -130 0
-133 -134 0
-133 -135 0
-133 -136 0
-133 -137 0
-134 -135 0
-134 -136 0
-134 -137 0
-135 -136 0
-135 -137 0
-136 -137 0
-138 -139 0
-138 -140 0
-138 -141 0
-138 -142 0
-139 -140 0
-139 -141 0
-139 -142 0
-140 -141 0
-140 -142 0
-141 -142 0
-143 -144 0
-143 -145 0
-143 -146 0
-143 -147 0
-144 -145 0
-144 -146 0
-144 -147 0
-145 -146 0
-145 -147 0
-146 -147 0
-149 -150 0
-151 -152 0
-153 -154 0
-155 -156 0
-157 -158 0
-159 -160 0
-161 -162 0
-163 -164 0
-165 -166 0
-167 -168 0
-169 -170 0
-171 -172 0
-173 -174 0
-175 -176 0
-177 -178 0
-179 -180 0
-181 -182 0
-183 -184 0
-185 -186 0
-187 -188 0
-1 -149 -2 0
-1 -149 -4 0
-1 -149 -5 0
-1 -150 -2 0
-1 -150 -3 0
-1 -150 -5 0
-2 -151 -38 0
-2 -151 -39 0
-2 -151 -40 0
-2 -152 -37 0
-2 -152 -38 0
-2 -152 -39 0
-2 -152 -40 0
-3 -151 -37 0
-3 -151 -39 0
-3 -151 -40 0
-3 -152 -37 0
-3 -152 -38 0
-3 -152 -40 0
-4 -151 -37 0
-4 -151 -38 0
-4 -151 -39 0
-4 -152 -37 0
-4 -152 -38 0
-4 -152 -39 0
-4 -152 -40 0
-5 -151 -37 0
-5 -151 -38 0
-5 -151 -39 0
-5 -152 -38 0
-5 -152 -39 0
-5 -152 -40 0
-12 -169 -17 0
-12 -169 -18 0
-12 -169 -19 0
-12 -169 -20 0
-12 -169 -21 0
-12 -170 -17 0
-12 -170 -19 0
-12 -170 -20 0
-12 -170 -21 0
-13 -169 -17 0
-13 -169 -19 0
-13 -169 -20 0
-13 -169 -21 0
-13 -170 -17 0
-13 -170 -18 0
-13 -170 -19 0
-13 -170 -20 0
-13 -170 -21 0
-14 -169 -17 0
-14 -169 -18 0
-14 -169 -20 0
-14 -169 -21 0
-14 -170 -17 0
-14 -170 -18 0
-14 -170 -19 0
-14 -170 -21 0
-15 -169 -17 0
-15 -169 -18 0
-15 -169 -19 0
-15 -169 -20 0
-15 -170 -17 0
-15 -170 -18 0
-15 -170 -19 0
-15 -170 -20 0
-15 -170 -21 0
-16 -169 -17 0
-16 -169 -18 0
-16 -169 -19 0
-16 -169 -20 0
-16 -170 -18 0
-16 -170 -19 0
-16 -170 -20 0
-16 -170 -21 0
-17 -171 -22 0
-18 -172 -22 0
-19 -171 -22 0
-19 -172 -22 0
-20 -171 -22 0
-20 -172 -22 0
-21 -171 -22 0
-21 -172 -22 0
-23 -173 -24 0
-23 -173 -26 0
-23 -173 -27 0
-23 -174 -24 0
-23 -174 -25 0
-23 -174 -27 0
-24 -175 -29 0
-24 -175 -30 0
-24 -175 -31 0
-24 -176 -28 0
-24 -176 -29 0
-24 -176 -30 0
-24 -176 -31 0
-25 -175 -28 0
-25 -175 -30 0
-25 -175 -31 0
-25 -176 -28 0
-25 -176 -29 0
-25 -176 -31 0
-26 -175 -28 0
-26 -175 -29 0
-26 -175 -30 0
-26 -176 -28 0
-26 -176 -29 0
-26 -176 -30 0
-26 -176 -31 0
-27 -175 -28 0
-27 -175 -29 0
-27 -175 -30 0
-27 -176 -29 0
-27 -176 -30 0
-27 -176 -31 0
-28 -177 -33 0
-28 -177 -34 0
-28 -177 -35 0
-28 -178 -32 0
-28 -178 -33 0
-28 -178 -34 0
-28 -178 -35 0
-29 -177 -32 0
-29 -177 -34 0
-29 -177 -35 0
-29 -178 -32 0
-29 -178 -33 0
-29 -178 -35 0
-30 -177 -32 0
-30 -177 -33 0
-30 -177 -34 0
-30 -178 -32 0
-30 -178 -33 0
-30 -178 -34 0
-30 -178 -35 0
-31 -177 -32 0
-31 -177 -33 0
-31 -177 -34 0
-31 -178 -33 0
-31 -178 -34 0
-31 -178 -35 0
-32 -180 -36 0
-33 -179 -36 0
-33 -180 -36 0
-34 -179 -36 0
-34 -180 -36 0
-35 -179 -36 0
-41 -181 -42 0
-41 -181 -44 0
-41 -181 -45 0
-41 -182 -42 0
-41 -182 -43 0
-41 -182 -45 0
-42 -183 -47 0
-42 -183 -48 0
-42 -183 -49 0
-42 -184 -46 0
-42 -184 -47 0
-42 -184 -48 0
-42 -184 -49 0
-43 -183 -46 0
-43 -183 -48 0
-43 -183 -49 0
-43 -184 -46 0
-43 -184 -47 0
-43 -184 -49 0
-44 -183 -46 0
-44 -183 -47 0
-44 -183 -48 0
-44 -184 -46 0
-44 -184 -47 0
-44 -184 -48 0
-44 -184 -49 0
-45 -183 -46 0
-45 -183 -47 0
-45 -183 -48 0
-45 -184 -47 0
-45 -184 -48 0
-45 -184 -49 0
-46 -185 -51 0
-46 -185 -52 0
-46 -185 -53 0
-46 -186 -50 0
-46 -186 -51 0
-46 -186 -52 0
-46 -186 -53 0
-47 -185 -50 0
-47 -185 -52 0
-47 -185 -53 0
-47 -186 -50 0
-47 -186 -51 0
-47 -186 -53 0
-48 -185 -50 0
-48 -185 -51 0
-48 -185 -52 0
-48 -186 -50 0
-48 -186 -51 0
-48 -186 -52 0
-48 -186 -53 0
-49 -185 -50 0
-49 -185 -51 0
-49 -185 -52 0
-49 -186 -51 0
-49 -186 -52 0
-49 -186 -53 0
-50 -188 -54 0
-51 -187 -54 0
-51 -188 -54 0
-52 -187 -54 0
-52 -188 -54 0
-53 -187 -54 0
-37 -153 -81 0
-37 -153 -82 0
-37 -153 -83 0
-37 -154 -80 0
-37 -154 -81 0
-37 -154 -82 0
-37 -154 -83 0
-38 -153 -80 0
-38 -153 -82 0
-38 -153 -83 0
-38 -154 -80 0
-38 -154 -81 0
-38 -154 -83 0
-39 -153 -80 0
-39 -153 -81 0
-39 -153 -82 0
-39 -154 -80 0
-39 -154 -81 0
-39 -154 -82 0
-39 -154 -83 0
-40 -153 -80 0
-40 -153 -81 0
-40 -153 -82 0
-40 -154 -81 0
-40 -154 -82 0
-40 -154 -83 0
-55 -149 -56 0
-55 -149 -57 0
-55 -149 -59 0
-55 -149 -60 0
-55 -149 -61 0
-55 -150 -56 0
-55 -150 -57 0
-55 -150 -58 0
-55 -150 -60 0
-55 -150 -61 0
-56 -157 -62 0
-56 -157 -63 0
-56 -157 -64 0
-56 -157 -65 0
-56 -157 -66 0
-56 -157 -67 0
-56 -158 -62 0
-56 -158 -64 0
-56 -158 -65 0
-56 -158 -66 0
-56 -158 -67 0
-57 -157 -62 0
-57 -157 -64 0
-57 -157 -65 0
-57 -157 -66 0
-57 -157 -67 0
-57 -158 -62 0
-57 -158 -63 0
-57 -158 -64 0
-57 -158 -65 0
-57 -158 -66 0
-57 -158 -67 0
-58 -157 -62 0
-58 -157 -63 0
-58 -157 -65 0
-58 -157 -66 0
-58 -157 -67 0
-58 -158 -62 0
-58 -158 -63 0
-58 -158 -64 0
-58 -158 -66 0
-58 -158 -67 0
-59 -157 -62 0
-59 -157 -63 0
-59 -157 -64 0
-59 -157 -65 0
-59 -157 -66 0
-59 -157 -67 0
-59 -158 -62 0
-59 -158 -63 0
-59 -158 -64 0
-59 -158 -65 0
-59 -158 -67 0
-60 -157 -62 0
-60 -157 -63 0
-60 -157 -64 0
-60 -157 -65 0
-60 -157 -66 0
-60 -157 -67 0
-60 -158 -62 0
-60 -158 -63 0
-60 -158 -64 0
-60 -158 -65 0
-60 -158 -66 0
-61 -157 -62 0
-61 -157 -63 0
-61 -157 -64 0
-61 -157 -65 0
-61 -157 -66 0
-61 -157 -67 0
-61 -158 -63 0
-61 -158 -64 0
-61 -158 -65 0
-61 -158 -66 0
-61 -158 -67 0
-62 -165 -68 0
-62 -165 -69 0
-62 -165 -70 0
-62 -165 -71 0
-62 -165 -72 0
-62 -165 -73 0
-62 -166 -68 0
-62 -166 -70 0
-62 -166 -71 0
-62 -166 -72 0
-62 -166 -73 0
-63 -165 -68 0
-63 -165 -70 0
-63 -165 -71 0
-63 -165 -72 0
-63 -165 -73 0
-63 -166 -68 0
-63 -166 -69 0
-63 -166 -70 0
-63 -166 -71 0
-63 -166 -72 0
-63 -166 -73 0
-64 -165 -68 0
-64 -165 -69 0
-64 -165 -71 0
-64 -165 -72 0
-64 -165 -73 0
-64 -166 -68 0
-64 -166 -69 0
-64 -166 -70 0
-64 -166 -72 0
-64 -166 -73 0
-65 -165 -68 0
-65 -165 -69 0
-65 -165 -70 0
-65 -165 -71 0
-65 -165 -72 0
-65 -165 -73 0
-65 -166 -68 0
-65 -166 -69 0
-65 -166 -70 0
-65 -166 -71 0
-65 -166 -73 0
-66 -165 -68 0
-66 -165 -69 0
-66 -165 -70 0
-66 -165 -71 0
-66 -165 -72 0
-66 -165 -73 0
-66 -166 -68 0
-66 -166 -69 0
-66 -166 -70 0
-66 -166 -71 0
-66 -166 -72 0
-67 -165 -68 0
-67 -165 -69 0
-67 -165 -70 0
-67 -165 -71 0
-67 -165 -72 0
-67 -165 -73 0
-67 -166 -69 0
-67 -166 -70 0
-67 -166 -71 0
-67 -166 -72 0
-67 -166 -73 0
-68 -173 -74 0
-68 -173 -75 0
-68 -173 -76 0
-68 -173 -77 0
-68 -173 -78 0
-68 -173 -79 0
-68 -174 -74 0
-68 -174 -76 0
-68 -174 -77 0
-68 -174 -78 0
-68 -174 -79 0
-69 -173 -74 0
-69 -173 -76 0
-69 -173 -77 0
-69 -173 -78 0
-69 -173 -79 0
-69 -174 -74 0
-69 -174 -75 0
-69 -174 -76 0
-69 -174 -77 0
-69 -174 -78 0
-69 -174 -79 0
-70 -173 -74 0
-70 -173 -75 0
-70 -173 -77 0
-70 -173 -78 0
-70 -173 -79 0
-70 -174 -74 0
-70 -174 -75 0
-70 -174 -76 0
-70 -174 -78 0
-70 -174 -79 0
-71 -173 -74 0
-71 -173 -75 0
-71 -173 -76 0
-71 -173 -77 0
-71 -173 -78 0
-71 -173 -79 0
-71 -174 -74 0
-71 -174 -75 0
-71 -174 -76 0
-71 -174 -77 0
-71 -174 -79 0
-72 -173 -74 0
-72 -173 -75 0
-72 -173 -76 0
-72 -173 -77 0
-72 -173 -78 0
-72 -173 -79 0
-72 -174 -74 0
-72 -174 -75 0
-72 -174 -76 0
-72 -174 -77 0
-72 -174 -78 0
-73 -173 -74 0
-73 -173 -75 0
-73 -173 -76 0
-73 -173 -77 0
-73 -173 -78 0
-73 -173 -79 0
-73 -174 -75 0
-73 -174 -76 0
-73 -174 -77 0
-73 -174 -78 0
-73 -174 -79 0
-74 -181 -84 0
-75 -182 -84 0
-76 -181 -84 0
-76 -182 -84 0
-77 -181 -84 0
-77 -182 -84 0
-78 -181 -84 0
-78 -182 -84 0
-79 -181 -84 0
-79 -182 -84 0
-85 -151 -86 0
-85 -152 -87 0
-86 -159 -89 0
-86 -160 -88 0
-86 -160 -89 0
-87 -159 -88 0
-87 -160 -89 0
-88 -167 -91 0
-88 -168 -90 0
-88 -168 -91 0
-89 -167 -90 0
-89 -168 -91 0
-90 -175 -93 0
-90 -176 -92 0
-90 -176 -93 0
-91 -175 -92 0
-91 -176 -93 0
-92 -184 -94 0
-93 -183 -94 0
-80 -156 -100 0
-81 -155 -100 0
-81 -156 -100 0
-82 -155 -100 0
-82 -156 -100 0
-83 -155 -100 0
-95 -153 -96 0
-95 -154 -97 0
-96 -161 -99 0
-96 -162 -98 0
-96 -162 -99 0
-97 -161 -98 0
-97 -162 -99 0
-98 -169 -102 0
-98 -170 -101 0
-98 -170 -102 0
-99 -169 -101 0
-99 -170 -102 0
-101 -177 -104 0
-101 -178 -103 0
-101 -178 -104 0
-102 -177 -103 0
-102 -178 -104 0
-103 -186 -105 0
-104 -185 -105 0
-106 -155 -107 0
-106 -155 -108 0
-106 -155 -110 0
-106 -155 -111 0
-106 -155 -112 0
-106 -156 -107 0
-106 -156 -108 0
-106 -156 -109 0
-106 -156 -111 0
-106 -156 -112 0
-107 -163 -113 0
-107 -163 -114 0
-107 -163 -115 0
-107 -163 -116 0
-107 -163 -117 0
-107 -163 -118 0
-107 -164 -113 0
-107 -164 -115 0
-107 -164 -116 0
-107 -164 -117 0
-107 -164 -118 0
-108 -163 -113 0
-108 -163 -115 0
-108 -163 -116 0
-108 -163 -117 0
-108 -163 -118 0
-108 -164 -113 0
-108 -164 -114 0
-108 -164 -115 0
-108 -164 -116 0
-108 -164 -117 0
-108 -164 -118 0
-109 -163 -113 0
-109 -163 -114 0
-109 -163 -116 0
-109 -163 -117 0
-109 -163 -118 0
-109 -164 -113 0
-109 -164 -114 0
-109 -164 -115 0
-109 -164 -117 0
-109 -164 -118 0
-110 -163 -113 0
-110 -163 -114 0
-110 -163 -115 0
-110 -163 -116 0
-110 -163 -117 0
-110 -163 -118 0
-110 -164 -113 0
-110 -164 -114 0
-110 -164 -115 0
-110 -164 -116 0
-110 -164 -117 0
-111 -163 -113 0
-111 -163 -114 0
-111 -163 -115 0
-111 -163 -116 0
-111 -163 -117 0
-111 -163 -118 0
-111 -164 -114 0
-111 -164 -115 0
-111 -164 -116 0
-111 -164 -117 0
-111 -164 -118 0
-112 -163 -113 0
-112 -163 -114 0
-112 -163 -115 0
-112 -163 -116 0
-112 -163 -117 0
-112 -163 -118 0
-112 -164 -113 0
-112 -164 -114 0
-112 -164 -115 0
-112 -164 -116 0
-112 -164 -118 0
-113 -171 -119 0
-113 -171 -120 0
-113 -171 -121 0
-113 -171 -122 0
-113 -171 -123 0
-113 -171 -124 0
-113 -172 -119 0
-113 -172 -121 0
-113 -172 -122 0
-113 -172 -123 0
-113 -172 -124 0
-114 -171 -119 0
-114 -171 -121 0
-114 -171 -122 0
-114 -171 -123 0
-114 -171 -124 0
-114 -172 -119 0
-114 -172 -120 0
-114 -172 -121 0
-114 -172 -122 0
-114 -172 -123 0
-114 -172 -124 0
-115 -171 -119 0
-115 -171 -120 0
-115 -171 -122 0
-115 -171 -123 0
-115 -171 -124 0
-115 -172 -119 0
-115 -172 -120 0
-115 -172 -121 0
-115 -172 -123 0
-115 -172 -124 0
-116 -171 -119 0
-116 -171 -120 0
-116 -171 -121 0
-116 -171 -122 0
-116 -171 -123 0
-116 -171 -124 0
-116 -172 -119 0
-116 -172 -120 0
-116 -172 -121 0
-116 -172 -122 0
-116 -172 -123 0
-117 -171 -119 0
-117 -171 -120 0
-117 -171 -121 0
-117 -171 -122 0
-117 -171 -123 0
-117 -171 -124 0
-117 -172 -120 0
-117 -172 -121 0
-117 -172 -122 0
-117 -172 -123 0
-117 -172 -124 0
-118 -171 -119 0
-118 -171 -120 0
-118 -171 -121 0
-118 -171 -122 0
-118 -171 -123 0
-118 -171 -124 0
-118 -172 -119 0
-118 -172 -120 0
-118 -172 -121 0
-118 -172 -122 0
-118 -172 -124 0
-119 -179 -125 0
-119 -179 -126 0
-119 -179 -127 0
-119 -179 -128 0
-119 -179 -129 0
-119 -179 -130 0
-119 -180 -125 0
-119 -180 -127 0
-119 -180 -128 0
-119 -180 -129 0
-119 -180 -130 0
-120 -179 -125 0
-120 -179 -127 0
-120 -179 -128 0
-120 -179 -129 0
-120 -179 -130 0
-120 -180 -125 0
-120 -180 -126 0
-120 -180 -127 0
-120 -180 -128 0
-120 -180 -129 0
-120 -180 -130 0
-121 -179 -125 0
-121 -179 -126 0
-121 -179 -128 0
-121 -179 -129 0
-121 -179 -130 0
-121 -180 -125 0
-121 -180 -126 0
-121 -180 -127 0
-121 -180 -129 0
-121 -180 -130 0
-122 -179 -125 0
-122 -179 -126 0
-122 -179 -127 0
-122 -179 -128 0
-122 -179 -129 0
-122 -179 -130 0
-122 -180 -125 0
-122 -180 -126 0
-122 -180 -127 0
-122 -180 -128 0
-122 -180 -129 0
-123 -179 -125 0
-123 -179 -126 0
-123 -179 -127 0
-123 -179 -128 0
-123 -179 -129 0
-123 -179 -130 0
-123 -180 -126 0
-123 -180 -127 0
-123 -180 -128 0
-123 -180 -129 0
-123 -180 -130 0
-124 -179 -125 0
-124 -179 -126 0
-124 -179 -127 0
-124 -179 -128 0
-124 -179 -129 0
-124 -179 -130 0
-124 -180 -125 0
-124 -180 -126 0
-124 -180 -127 0
-124 -180 -128 0
-124 -180 -130 0
-125 -187 -131 0
-126 -188 -131 0
-127 -187 -131 0
-127 -188 -131 0
-128 -187 -131 0
-128 -188 -131 0
-129 -187 -131 0
-129 -188 -131 0
-130 -187 -131 0
-130 -188 -131 0
-132 -157 -133 0
-132 -157 -134 0
-132 -157 -136 0
-132 -157 -137 0
-132 -158 -133 0
-132 -158 -134 0
-132 -158 -135 0
-132 -158 -137 0
-133 -159 -139 0
-133 -159 -140 0
-133 -159 -141 0
-133 -159 -142 0
-133 -160 -138 0
-133 -160 -140 0
-133 -160 -141 0
-133 -160 -142 0
-134 -159 -138 0
-134 -159 -140 0
-134 -159 -141 0
-134 -159 -142 0
-134 -160 -138 0
-134 -160 -139 0
-134 -160 -140 0
-134 -160 -141 0
-134 -160 -142 0
-135 -159 -138 0
-135 -159 -139 0
-135 -159 -141 0
-135 -159 -142 0
-135 -160 -138 0
-135 -160 -139 0
-135 -160 -140 0
-135 -160 -142 0
-136 -159 -138 0
-136 -159 -139 0
-136 -159 -140 0
-136 -159 -141 0
-136 -159 -142 0
-136 -160 -138 0
-136 -160 -139 0
-136 -160 -140 0
-136 -160 -141 0
-137 -159 -139 0
-137 -159 -140 0
-137 -159 -141 0
-137 -159 -142 0
-137 -160 -138 0
-137 -160 -139 0
-137 -160 -140 0
-137 -160 -141 0
-137 -160 -142 0
-138 -161 -144 0
-138 -161 -145 0
-138 -161 -146 0
-138 -161 -147 0
-138 -162 -143 0
-138 -162 -145 0
-138 -162 -146 0
-138 -162 -147 0
-139 -161 -143 0
-139 -161 -145 0
-139 -161 -146 0
-139 -161 -147 0
-139 -162 -143 0
-139 -162 -144 0
-139 -162 -145 0
-139 -162 -146 0
-139 -162 -147 0
-140 -161 -143 0
-140 -161 -144 0
-140 -161 -146 0
-140 -161 -147 0
-140 -162 -143 0
-140 -162 -144 0
-140 -162 -145 0
-140 -162 -147 0
-141 -161 -143 0
-141 -161 -144 0
-141 -161 -145 0
-141 -161 -146 0
-141 -161 -147 0
-141 -162 -143 0
-141 -162 -144 0
-141 -162 -145 0
-141 -162 -146 0
-142 -161 -144 0
-142 -161 -145 0
-142 -161 -146 0
-142 -161 -147 0
-142 -162 -143 0
-142 -162 -144 0
-142 -162 -145 0
-142 -162 -146 0
-142 -162 -147 0
-143 -163 -148 0
-144 -164 -148 0
-145 -163 -148 0
-145 -164 -148 0
-146 -163 -148 0
-146 -164 -148 0
-147 -163 -148 0
-147 -164 -148 0
-6 -165 -7 0
-6 -165 -8 0
-6 -165 -10 0
-6 -165 -11 0
-6 -166 -7 0
-6 -166 -8 0
-6 -166 -9 0
-6 -166 -11 0
-7 -167 -12 0
-7 -167 -13 0
-7 -167 -14 0
-7 -167 -15 0
-7 -167 -16 0
-7 -168 -12 0
-7 -168 -14 0
-7 -168 -15 0
-7 -168 -16 0
-8 -167 -12 0
-8 -167 -14 0
-8 -167 -15 0
-8 -167 -16 0
-8 -168 -12 0
-8 -168 -13 0
-8 -168 -14 0
-8 -168 -15 0
-8 -168 -16 0
-9 -167 -12 0
-9 -167 -13 0
-9 -167 -15 0
-9 -167 -16 0
-9 -168 -12 0
-9 -168 -13 0
-9 -168 -14 0
-9 -168 -16 0
-10 -167 -12 0
-10 -167 -13 0
-10 -167 -14 0
-10 -167 -15 0
-10 -168 -12 0
-10 -168 -13 0
-10 -168 -14 0
-10 -168 -15 0
-10 -168 -16 0
-11 -167 -12 0
-11 -167 -13 0
-11 -167 -14 0
-11 -167 -15 0
-11 -168 -13 0
-11 -168 -14 0
-11 -168 -15 0
-11 -168 -16 0
